2	25
536	221	696	978	707	858	556	315	697	246	830	652	748	271	920	291	426	933	207	481	166	757	817	879	432	
324	48	665	734	898	490	971	155	651	781	960	553	716	460	750	72	577	562	262	646	424	533	745	70	358	
5027	5027	
